objective value:                                  -83
t_x16                                               1 	(obj:-100)
t_y16_347                                           1 	(obj:1)
t_y16_122                                           1 	(obj:1)
t_y16_128                                           1 	(obj:1)
t_y16_268                                           1 	(obj:1)
t_y16_123                                           1 	(obj:1)
t_y16_43                                            1 	(obj:1)
t_y16_186                                           1 	(obj:1)
t_y16_192                                           1 	(obj:1)
t_y16_68                                            1 	(obj:1)
t_y16_318                                           1 	(obj:1)
t_y16_36                                            1 	(obj:1)
t_y16_354                                           1 	(obj:1)
t_y16_334                                           1 	(obj:1)
t_y16_55                                            1 	(obj:1)
t_y16_346                                           1 	(obj:1)
t_y16_284                                           1 	(obj:1)
t_y16_257                                           1 	(obj:1)
